c --- [ banner ] -------------------------------------------------------------
c 
c CaDiCaL SAT Solver
c Copyright (c) 2016-2023 A. Biere, M. Fleury, N. Froleyks, K. Fazekas, F. Pollitt
c 
c Version 1.9.5
c g++ (Ubuntu 11.4.0-1ubuntu1~22.04) 11.4.0 -Wall -Wextra -O3 -DNDEBUG -static
c Thu Mar 7 06:16:21 CET 2024 Linux pc101447 6.5.0-17-generic x86_64
c 
c --- [ limit ] --------------------------------------------------------------
c 
c setting time limit to 3600 seconds real time (due to '-t 3600')
c 
c --- [ parsing input ] ------------------------------------------------------
c 
c reading DIMACS file from '/home/oliveras/SAT-comp-2023//92387c29e87aa857e84feb301f3d6aff-rbsat-v760c43649gyes5.cnf'
c opening file to read '/home/oliveras/SAT-comp-2023//92387c29e87aa857e84feb301f3d6aff-rbsat-v760c43649gyes5.cnf'
c found 'p cnf 760 43649' header
c parsed 43649 clauses in 0.02 seconds process time
c 
c --- [ options ] ------------------------------------------------------------
c 
c   --seed=1                       (different from default '0')
c 
c --- [ solving ] ------------------------------------------------------------
c 
c time measured in process time since initialization
c 
c  seconds  reductions  redundant  irredundant
c         MB    restarts       trail     variables
c          level   conflicts       glue      remaining
c 
c *  0.02  5  0 0   0    0    0  0% 0 43649 760 100%
c {  0.02  5  0 0   0    0    0  0% 0 43649 760 100%
c -  0.04  5 11 1   5  301  184 82% 5 43649 760 100%
c -  0.06  7 16 2  45  905  590 82% 6 43649 760 100%
c }  0.06  7 16 2  49 1000  656 82% 6 43649 760 100%
c [  0.06  7  0 2  49 1000  656  0% 0 43649 760 100%
c O  0.06  7 14 2  49 1002  658 88% 6 43649 760 100%
c -  0.09  8 12 3  49 1805 1081 82% 7 43649 760 100%
c ]  0.13  8 16 3  50 3000 2051 81% 9 43649 760 100%
c {  0.13  8 16 3  50 3000 2051 82% 6 43649 760 100%
c F  0.13  8 16 3  50 3003 2054 82% 6 43649 760 100%
c -  0.14  8 16 4  50 3005 1575 82% 6 43649 760 100%
c -  0.18  8 16 5  98 4506 1881 82% 6 43649 760 100%
c 2  0.20  8 16 5 108 5000 2227 82% 6 41065 760 100%
c p  0.20  8 16 5 108 5000 2227 82% 6 41065 760 100%
c #  0.23  8 16 5 154 6004 2964 81% 6 41065 760 100%
c -  0.25  7 16 6 168 6308 2468 81% 6 41065 760 100%
c }  0.27  7 16 6 237 7000 2983 81% 6 41065 760 100%
c [  0.27  7 16 6 237 7000 2983 81% 9 41065 760 100%
c -  0.31  8 19 7 238 8409 3167 80% 9 41065 760 100%
c 
c  seconds  reductions   redundant  irredundant
c         MB    restarts        trail     variables
c          level    conflicts       glue      remaining
c 
c I  0.37  8 20 7 239 10005 4584 81% 9 41065 760 100%
c -  0.40  9 24 8 240 10809 3852 81% 10 41065 760 100%
c s  0.44  9 25 8 241 11689 4590 81% 10 41065 760 100%
c w  0.45  9 25 8 241 11689 4579 81% 10 41065 760 100%
c e  0.50  9 25 8 241 11689 1549 81% 10 40514 731 96%
c s  0.51  9 25 8 241 11689 1536 81% 10 40514 731 96%
c -  0.58  7 26 9 242 13509 2630 81% 10 40514 731 96%
c ]  0.64  7 24 9 242 15000 3833 80% 10 40514 731 96%
c {  0.64  7 16 9 242 15000 3833 81% 6 40514 731 96%
c p  0.66  7 16 9 242 15000 3835 81% 6 40514 731 96%
c B  0.66  7 16 9 243 15008 3843 81% 6 40514 731 96%
c -  0.71  7 15 10 390 16510 4003 81% 6 40514 731 96%
c -  0.81  8 15 11 573 19811 5075 80% 6 40514 731 96%
c W  0.87  8 15 11 663 21010 5999 80% 6 40514 731 96%
c -  0.94  8 15 12 787 23413 5761 80% 6 40514 731 96%
c -  1.06  8 14 13 1019 27315 6345 79% 6 40514 731 96%
c F  1.08  8 14 13 1032 28011 6856 79% 6 40514 731 96%
c p  1.15  8 14 13 1194 30000 8385 79% 6 40514 731 96%
c }  1.18  8 14 13 1244 31000 9124 79% 6 40514 731 96%
c [  1.18  8 24 13 1244 31000 9124 80% 10 40514 731 96%
c 
c  seconds  reductions     redundant   irredundant
c         MB     restarts         trail      variables
c          level      conflicts       glue       remaining
c 
c -  1.20  8 24 14 1244 31516 7020 80% 10 40514 731 96%
c s  1.33  9 24 14 1246 34861 9541 79% 10 40514 731 96%
c v  1.34  9 24 14 1246 34861 9541 79% 10 40511 731 96%
c w  1.35  9 24 14 1246 34861 9522 79% 10 40511 731 96%
c s  1.38  9 24 14 1246 34861 9483 79% 10 40511 731 96%
c B  1.43  9 25 14 1247 36012 10460 79% 10 40511 731 96%
c -  1.43  9 25 15 1247 36016 7758 79% 10 40511 731 96%
c -  1.62  9 26 16 1250 40817 8122 79% 11 40511 731 96%
c W  1.83  9 26 16 1251 45016 11749 79% 11 40511 731 96%
c -  1.87  9 25 17 1251 45917 8426 79% 11 40511 731 96%
c p  2.05  9 24 17 1252 50000 11726 80% 11 40511 731 96%
c -  2.11  8 24 18 1252 51321 8841 80% 11 40511 731 96%
c O  2.24  8 23 18 1253 55018 11628 80% 11 40511 731 96%
c -  2.32 10 23 19 1255 57021 9379 80% 11 40511 731 96%
c ]  2.56 10 23 19 1259 63002 14391 80% 11 40511 731 96%
c {  2.56 10 14 19 1259 63002 14391 79% 6 40511 731 96%
c -  2.57 10 14 20 1265 63021 10302 79% 6 40511 731 96%
c B  2.66 10 14 20 1490 66021 12382 79% 6 40511 731 96%
c -  2.78 10 14 21 1797 69325 9873 79% 6 40511 731 96%
c s  2.80 10 14 21 1798 69620 9757 79% 6 40511 731 96%
c 
c  seconds  reductions     redundant  irredundant
c         MB     restarts         trail     variables
c          level      conflicts       glue      remaining
c 
c v  2.81 10 14 21 1798 69620 9757 79% 6 40506 731 96%
c s  2.86 10 14 21 1798 69620 9636 79% 6 40506 731 96%
c p  3.06 10 13 21 2250 75001 13312 79% 6 40506 731 96%
c -  3.10 10 13 22 2329 75925 10646 79% 6 40506 731 96%
c W  3.21 10 13 22 2514 78023 12100 79% 6 40506 731 96%
c -  3.36 10 13 23 2837 82830 11380 79% 6 40506 731 96%
c -  3.60 12 12 24 3285 90031 11934 79% 6 40506 731 96%
c #  3.63 12 12 24 3356 91024 12620 79% 6 40506 731 96%
c -  3.85 12 12 25 3669 97531 12740 79% 6 40506 731 96%
c p  4.12 12 12 25 4164 105004 17830 79% 6 40506 731 96%
c B  4.12 12 12 25 4164 105025 17850 79% 6 40506 731 96%
c -  4.14 12 12 26 4215 105331 13443 79% 6 40506 731 96%
c -  4.42 14 12 27 4782 113431 14257 79% 6 40506 731 96%
c s  4.51 14 12 27 4925 115964 15671 79% 6 40506 731 96%
c v  4.53 14 12 27 4925 115964 15671 79% 6 40440 731 96%
c w  4.54 14 12 27 4925 115964 15651 79% 6 40440 731 96%
c s  4.58 14 12 27 4925 115964 15589 79% 6 40440 731 96%
c W  4.78 14 12 27 5146 120028 18189 79% 6 40440 731 96%
c -  4.85 12 12 28 5304 121831 14642 79% 6 40440 731 96%
c }  5.02 12 12 28 5651 127002 17996 79% 6 40440 731 96%
c 
c  seconds  reductions       redundant   irredundant
c         MB     restarts           trail      variables
c          level      conflicts         glue       remaining
c 
c [  5.02 12 23 28 5651 127002 17996 80% 11 40440 731 96%
c -  5.16 14 23 29 5651 130533 15754 80% 11 40440 731 96%
c ]  5.34 14 22 29 5654 135034 19340 80% 11 40440 731 96%
c 1  5.34 14 22 29 5654 135034 19340 80% 11 40440 731 96%
c 
c --- [ result ] -------------------------------------------------------------
c 
s SATISFIABLE
v -1 2 -3 -4 -5 -6 -7 -8 -9 -10 -11 -12 -13 -14 -15 -16 -17 -18 -19 -20 -21
v -22 -23 -24 -25 -26 -27 28 -29 -30 -31 -32 -33 -34 -35 -36 -37 -38 -39 -40
v -41 -42 -43 -44 -45 -46 -47 -48 -49 -50 -51 52 -53 -54 -55 -56 -57 -58 -59
v 60 -61 -62 -63 -64 -65 -66 -67 -68 -69 -70 -71 -72 -73 -74 -75 -76 -77 -78
v -79 -80 -81 -82 -83 -84 -85 -86 -87 88 -89 -90 -91 -92 -93 -94 -95 -96 -97
v -98 -99 -100 -101 -102 -103 -104 -105 -106 -107 -108 -109 -110 111 -112 -113
v -114 -115 -116 -117 -118 119 -120 -121 -122 -123 -124 -125 -126 -127 -128
v -129 -130 -131 -132 -133 -134 -135 -136 -137 -138 -139 -140 -141 -142 -143
v -144 -145 -146 -147 -148 -149 150 -151 -152 -153 -154 -155 -156 -157 -158
v -159 160 -161 -162 -163 -164 -165 -166 -167 -168 -169 -170 -171 -172 -173
v -174 -175 -176 -177 -178 -179 -180 181 -182 -183 -184 -185 -186 -187 -188
v -189 -190 -191 -192 -193 -194 -195 -196 -197 -198 199 -200 -201 -202 -203
v -204 -205 -206 -207 -208 -209 -210 211 -212 -213 -214 -215 -216 -217 -218
v -219 -220 -221 -222 -223 -224 -225 -226 -227 -228 -229 -230 -231 -232 -233
v -234 -235 -236 -237 -238 -239 -240 -241 -242 -243 -244 245 -246 -247 -248
v -249 -250 -251 -252 -253 -254 -255 256 -257 -258 -259 -260 -261 -262 -263
v -264 -265 -266 -267 -268 -269 -270 -271 -272 -273 -274 -275 -276 -277 -278
v 279 -280 -281 -282 -283 -284 -285 -286 -287 -288 -289 290 -291 -292 -293
v -294 -295 -296 -297 -298 -299 -300 -301 -302 -303 -304 305 -306 -307 -308
v -309 -310 -311 -312 -313 -314 -315 -316 -317 -318 -319 -320 -321 -322 -323
v -324 -325 326 -327 -328 -329 -330 -331 -332 -333 -334 -335 -336 -337 -338
v -339 -340 -341 -342 -343 -344 -345 -346 -347 -348 -349 -350 -351 -352 -353
v -354 -355 -356 -357 -358 359 -360 -361 -362 -363 364 -365 -366 -367 -368
v -369 -370 -371 -372 -373 -374 -375 -376 -377 -378 -379 -380 -381 382 -383
v -384 -385 -386 -387 -388 -389 -390 -391 -392 -393 -394 -395 -396 -397 -398
v -399 -400 -401 -402 -403 -404 -405 -406 -407 -408 -409 -410 -411 -412 -413
v -414 -415 -416 -417 418 -419 -420 -421 -422 -423 -424 -425 -426 -427 -428
v -429 -430 -431 -432 -433 -434 -435 -436 437 -438 -439 -440 -441 442 -443
v -444 -445 -446 -447 -448 -449 -450 -451 -452 -453 -454 -455 -456 -457 -458
v -459 -460 -461 -462 -463 -464 -465 466 -467 -468 -469 -470 -471 -472 -473
v -474 -475 -476 -477 -478 -479 -480 -481 -482 -483 -484 -485 -486 -487 -488
v 489 -490 -491 -492 -493 -494 -495 -496 497 -498 -499 -500 -501 -502 -503
v -504 -505 -506 -507 -508 -509 -510 -511 -512 -513 -514 -515 -516 -517 -518
v -519 -520 -521 -522 -523 524 -525 -526 -527 -528 -529 -530 -531 -532 -533
v -534 -535 -536 -537 -538 -539 -540 -541 -542 -543 -544 545 -546 -547 -548
v -549 -550 -551 -552 553 -554 -555 -556 -557 -558 -559 -560 -561 -562 -563
v -564 -565 -566 -567 -568 -569 -570 -571 -572 -573 -574 -575 -576 -577 -578
v -579 -580 -581 582 -583 -584 -585 -586 -587 -588 -589 -590 -591 -592 -593
v -594 -595 -596 -597 -598 -599 -600 -601 -602 603 -604 -605 -606 -607 -608
v -609 -610 611 -612 -613 -614 -615 -616 -617 -618 -619 -620 -621 -622 -623
v -624 -625 -626 -627 -628 -629 -630 -631 -632 -633 634 -635 -636 -637 -638
v -639 -640 -641 -642 -643 -644 -645 -646 -647 -648 -649 -650 -651 -652 -653
v -654 -655 -656 -657 -658 -659 -660 -661 662 -663 -664 -665 -666 -667 -668
v -669 -670 -671 -672 -673 -674 -675 676 -677 -678 -679 -680 -681 -682 -683
v -684 -685 -686 -687 -688 -689 -690 -691 -692 693 -694 -695 -696 -697 -698
v -699 -700 -701 -702 -703 -704 -705 -706 -707 -708 -709 -710 -711 -712 -713
v -714 -715 -716 -717 -718 -719 -720 721 -722 -723 -724 -725 -726 -727 -728
v -729 -730 731 -732 -733 -734 -735 -736 -737 -738 -739 -740 -741 -742 -743
v -744 -745 -746 -747 748 -749 -750 -751 -752 -753 -754 -755 -756 -757 -758
v -759 -760 0
c 
c --- [ run-time profiling ] -------------------------------------------------
c 
c process time taken by individual solving procedures
c (percentage relative to process time for solving)
c 
c         4.89   91.84% search
c         2.79   52.39% unstable
c         1.94   36.47% stable
c         0.43    8.15% simplify
c         0.16    2.97% walk
c         0.09    1.77% subsume
c         0.08    1.52% elim
c         0.08    1.46% probe
c         0.07    1.24% vivify
c         0.02    0.43% parse
c         0.02    0.42% ternary
c         0.00    0.01% lucky
c   =================================
c         5.32   99.56% solve
c 
c last line shows process time for solving
c (percentage relative to total process time)
c 
c --- [ statistics ] ---------------------------------------------------------
c 
c chronological:             41137        30.46 %  of conflicts
c conflicts:                135034     25377.54    per second
c decisions:                220546     41448.19    per second
c eliminated:                   29         3.82 %  of all variables
c learned:                  131352        97.27 %  per conflict
c learned_lits:            6730731       100.00 %  learned literals
c minimized:                     0         0.00 %  learned literals
c shrunken:                3974606        59.05 %  learned literals
c minishrunken:             659441         9.80 %  learned literals
c otfs:                        570         0.42 %  of conflict
c propagations:           16299184         3.06 M  per second
c reduced:                   76099        56.36 %  per conflict
c rephased:                     15      9002.27    interval
c restarts:                   5654        23.88    interval
c stabilizing:                   4        37.05 %  of conflicts
c subsumed:                  35428        19.88 %  of all clauses
c strengthened:              19223        10.79 %  of all clauses
c trail reuses:                  0         0.00 %  of incremental calls
c vivified:                    833         0.47 %  of all clauses
c walked:                        4     33758.50    interval
c weakened:                    551         2.89    average size
c 
c seconds are measured in process time for solving
c 
c --- [ resources ] ----------------------------------------------------------
c 
c total process time since initialization:         5.34    seconds
c total real time since initialization:            5.35    seconds
c maximum resident set size of process:           14.36    MB
c 
c --- [ shutting down ] ------------------------------------------------------
c 
c exit 10
